50
100
99
99
98
96
95
93
92
91
91
91
88
86
84
84
84
80
80
79
78
77
76
76
73
72
71
71
69
68
67
64
64
61
59
58
54
52
49
49
41
40
38
31
31
29
28
27
27
27
22
20
